
Gurobi 6.5.2 (linux64) logging started Wed Aug 31 10:35:32 2016

Optimize a model with 201 rows, 1585 columns and 3473 nonzeros
Coefficient statistics:
  Matrix range    [1e+00, 2e+00]
  Objective range [1e+00, 1e+02]
  Bounds range    [1e+00, 1e+00]
  RHS range       [1e+00, 1e+00]
Found heuristic solution: objective 6676
Presolve removed 56 rows and 5 columns
Presolve time: 0.01s
Presolved: 145 rows, 1580 columns, 3226 nonzeros
Variable types: 0 continuous, 1580 integer (1580 binary)

Root relaxation: objective 1.459000e+03, 165 iterations, 0.00 seconds

    Nodes    |    Current Node    |     Objective Bounds      |     Work
 Expl Unexpl |  Obj  Depth IntInf | Incumbent    BestBd   Gap | It/Node Time

     0     0 1459.00000    0   16 6676.00000 1459.00000  78.1%     -    0s
H    0     0                    1571.0000000 1459.00000  7.13%     -    0s
H    0     0                    1494.0000000 1459.00000  2.34%     -    0s
H    0     0                    1469.0000000 1459.00000  0.68%     -    0s
     0     0 1466.50000    0    8 1469.00000 1466.50000  0.17%     -    0s
     0     0 1466.50000    0    8 1469.00000 1466.50000  0.17%     -    0s
     0     0 1467.00000    0   10 1469.00000 1467.00000  0.14%     -    0s
     0     0 1467.00000    0    5 1469.00000 1467.00000  0.14%     -    0s
H    0     0                    1468.0000000 1467.00000  0.07%     -    0s
     0     0     cutoff    0      1468.00000 1467.00147  0.07%     -    0s

Cutting planes:
  Gomory: 4
  Clique: 5
  Zero half: 3

Explored 0 nodes (407 simplex iterations) in 0.04 seconds
Thread count was 8 (of 8 available processors)

Optimal solution found (tolerance 1.00e-04)
Best objective 1.468000000000e+03, best bound 1.468000000000e+03, gap 0.0%
